InboundTrucks  = 50;
OutboundTrucks = 50;
InboundDoors   = 8;
OutboundDoors  = 8;
ReleaseTime    = [30,75,69,16,47,117,77,60,80,74,8,77,1,116,107,60,33,70,29,24,91,60,69,107,70,60,50,81,110,19,29,81,19,111,118,66,49,94,1,85,99,8,20,97,75,5,38,99,3,105];
UnloadTime     = [23,18,32,23,21,10,12,32,26,20,33,35,25,28,33,25,18,33,25,11,15,28,31,9,17,21,18,9,18,27,14,34,17,11,10,25,17,33,21,8,11,13,23,6,21,25,30,31,34,13];
LoadTime       = [13,10,10,17,11,21,22,24,8,19,20,21,16,9,14,18,10,10,12,6,17,11,16,18,12,14,10,16,14,20,11,11,11,17,11,10,20,13,10,8,20,13,17,17,11,8,6,18,10,5];
TransferTime   = [| 5,0,0,0,0,0,0,0,0,1,0,0,0,9,0,1,9,0,2,0,0,5,0,0,1,11,0,0,0,0,1,5,10,2,0,0,0,0,0,1,6,0,4,0,0,5,6,0,3,0 | 0,3,0,0,0,0,0,2,6,0,6,0,0,3,0,0,2,0,6,2,0,0,0,9,12,0,0,0,2,4,0,2,0,0,5,0,0,2,0,0,0,0,0,0,0,0,5,0,0,2 | 0,0,0,0,0,6,0,0,5,10,0,5,0,0,2,0,0,3,0,0,2,0,7,1,10,0,6,0,0,2,0,0,2,0,0,3,0,0,0,7,0,3,0,6,0,0,0,0,0,0 | 0,0,0,0,0,0,0,0,12,0,0,0,3,10,0,6,8,0,2,0,0,0,0,0,0,0,0,2,0,0,0,0,0,4,5,0,4,7,0,3,0,0,1,0,0,0,6,0,0,4 | 0,1,0,0,5,0,11,3,0,6,4,10,0,4,0,0,2,0,0,6,0,0,0,0,0,2,0,0,0,0,0,1,4,10,6,0,10,2,0,0,1,0,0,3,0,0,1,0,0,0 | 8,0,6,0,0,4,0,0,0,0,0,0,0,0,0,0,0,0,0,0,4,0,0,0,0,0,4,0,0,5,10,0,0,0,0,0,0,0,5,0,0,3,0,0,0,0,5,0,0,0 | 1,0,0,0,0,0,1,0,0,6,6,0,3,0,0,0,0,0,6,0,0,2,0,0,2,0,0,0,0,0,4,0,0,6,0,9,0,0,0,4,0,0,1,0,9,3,0,0,0,8 | 0,0,0,8,0,0,0,4,0,0,1,0,0,0,9,0,2,0,0,4,11,0,0,5,0,4,0,0,0,0,0,5,0,0,0,0,0,6,0,7,4,0,0,4,12,9,2,0,0,0 | 0,0,0,0,0,5,0,0,6,7,0,0,0,0,6,0,0,5,0,0,6,10,8,0,8,0,3,0,0,0,0,0,1,5,0,6,0,6,0,0,0,0,0,0,2,0,0,6,0,0 | 6,0,0,0,0,0,0,12,0,6,0,0,1,0,0,0,0,0,0,9,0,1,0,0,5,0,0,4,0,4,0,0,0,5,10,0,0,0,11,2,7,0,3,10,0,1,0,5,2,0 | 0,2,0,0,3,0,0,2,0,0,5,0,0,4,0,0,5,0,0,4,0,0,0,0,0,0,0,0,5,0,0,0,0,0,2,0,9,1,8,0,0,0,0,5,0,0,0,0,0,6 | 0,0,3,0,0,2,0,0,1,0,0,0,0,0,2,0,0,1,0,0,6,12,0,5,0,0,1,11,0,3,0,9,4,0,0,5,0,0,0,8,0,4,0,0,4,0,0,0,0,0 | 1,0,0,0,0,0,5,0,0,1,0,0,5,0,6,2,0,0,6,0,0,3,0,0,0,0,0,0,0,0,4,8,0,0,0,0,1,0,11,4,0,0,0,0,0,5,9,0,1,0 | 9,4,0,0,6,0,0,5,0,0,0,0,0,1,0,0,0,0,9,0,0,0,6,0,0,0,10,0,0,5,7,4,0,0,6,0,6,0,0,0,2,0,0,2,0,6,5,0,4,1 | 5,0,1,0,0,6,0,0,5,0,0,5,0,0,5,0,10,6,0,0,0,0,0,0,0,0,0,0,6,0,0,0,3,0,0,2,0,0,0,0,0,3,0,0,0,0,0,2,0,0 | 4,0,0,2,0,0,3,7,0,2,0,0,2,0,0,5,0,0,6,0,5,1,0,0,0,7,0,0,0,0,5,6,0,4,0,0,5,0,6,4,0,0,3,0,0,0,0,0,5,0 | 0,0,0,0,1,9,9,6,0,4,5,0,0,1,0,0,3,0,0,4,0,0,6,9,0,4,5,0,6,0,0,0,0,0,0,0,0,3,0,0,2,9,0,1,0,0,1,0,0,3 | 0,0,0,0,12,0,0,0,0,0,0,3,0,0,3,0,0,2,9,0,6,0,10,0,0,0,5,0,0,2,0,8,6,0,0,2,0,0,4,0,0,6,8,0,5,0,0,6,11,10 | 1,0,0,0,0,0,6,0,10,6,0,10,0,5,10,5,0,0,1,0,0,6,9,0,6,0,0,4,0,0,0,0,4,0,0,9,2,0,0,6,0,6,0,0,0,6,0,0,1,0 | 0,6,0,0,6,0,0,0,0,0,2,0,0,4,0,0,4,0,0,0,0,0,0,0,12,0,0,0,6,0,0,2,0,0,3,0,0,0,0,0,0,0,0,3,0,0,0,7,0,3 | 0,0,4,0,0,1,0,0,4,11,0,2,0,0,2,0,10,0,7,0,2,0,0,4,0,0,6,0,0,3,0,0,2,0,0,3,0,12,3,0,0,0,0,0,2,0,0,4,0,0 | 3,0,9,0,0,0,0,0,0,2,0,0,1,0,0,6,0,0,2,0,0,0,0,0,3,7,0,0,0,10,2,0,0,1,0,0,2,0,0,0,0,0,5,0,0,5,0,0,0,0 | 0,0,0,0,3,0,0,5,0,8,3,0,0,3,0,0,4,0,0,2,0,0,2,0,5,1,0,0,5,0,0,6,0,0,5,0,0,4,12,0,4,0,0,0,0,0,0,0,0,3 | 0,0,4,0,0,4,0,0,6,0,0,3,9,0,1,0,6,4,0,0,0,0,0,0,0,0,1,0,0,5,0,5,4,0,0,6,0,0,0,0,0,0,0,0,5,8,0,2,5,0 | 1,0,0,4,0,0,0,0,0,1,0,0,0,0,0,1,12,0,6,0,4,2,0,0,4,0,0,0,0,11,5,10,0,6,0,4,3,0,0,4,0,0,3,0,0,6,0,0,4,0 | 0,5,12,0,1,0,9,0,0,0,6,0,0,3,4,0,0,0,0,5,0,0,4,0,0,4,0,0,0,0,11,3,0,0,0,0,0,5,0,0,3,0,7,6,0,0,0,12,0,2 | 9,0,0,0,0,3,0,0,4,0,0,5,7,10,2,0,0,6,0,0,5,0,0,5,0,0,2,0,11,1,0,0,3,0,0,4,0,0,5,0,0,5,8,0,1,0,11,2,0,0 | 4,0,0,6,0,0,0,0,11,4,0,0,0,0,0,4,0,0,1,0,0,6,9,11,3,8,0,4,0,0,3,0,0,4,0,0,3,10,0,6,0,0,2,0,0,0,0,0,2,0 | 0,0,0,0,4,0,0,2,0,0,0,10,0,0,0,0,5,0,5,5,12,0,5,0,0,5,0,0,1,0,0,3,0,0,0,0,0,6,0,0,2,6,0,0,0,0,0,10,0,1 | 0,0,6,0,11,3,0,0,1,10,0,6,12,6,0,7,0,0,0,9,0,0,0,5,0,0,0,0,0,0,0,0,0,0,0,6,0,6,0,0,0,0,0,0,0,0,0,0,0,0 | 0,0,7,3,11,4,0,0,0,4,11,12,0,10,0,4,0,0,0,0,0,5,0,0,4,0,0,4,0,0,4,7,0,2,0,0,5,0,0,2,0,0,0,0,0,2,0,0,3,0 | 0,1,0,0,2,0,0,0,11,0,6,0,0,3,8,0,6,0,0,0,0,4,5,4,0,0,0,0,1,0,0,0,0,0,5,0,0,0,12,0,5,0,9,3,0,4,5,0,4,6 | 0,0,1,0,0,3,0,0,6,0,0,0,0,10,1,0,0,0,0,0,1,0,5,2,0,0,0,0,0,3,0,0,0,0,8,2,0,5,6,0,0,4,0,0,0,0,0,0,0,0 | 6,0,0,0,0,0,0,0,9,3,10,11,2,0,0,5,0,0,6,0,6,0,0,0,3,0,0,3,0,0,6,0,0,4,0,0,4,0,0,0,0,0,0,0,0,1,0,6,0,0 | 0,0,6,0,4,0,0,6,0,12,0,0,0,0,0,0,6,10,11,1,0,0,0,0,0,4,0,0,0,0,9,0,0,0,3,0,0,0,0,0,4,7,0,4,0,0,2,0,0,4 | 0,0,1,0,0,0,5,10,4,0,0,0,0,0,5,0,0,5,0,0,6,0,0,0,0,0,5,0,0,0,0,0,1,0,6,0,0,0,0,0,0,1,0,0,6,0,9,3,0,0 | 3,0,6,6,0,5,2,0,0,3,0,0,1,0,0,0,0,0,6,0,0,6,0,0,5,0,0,2,0,10,3,0,0,4,6,0,6,0,0,1,0,11,2,0,0,1,0,0,6,0 | 12,0,0,12,0,0,7,1,0,0,3,0,0,5,0,0,2,0,0,2,0,12,5,0,0,4,0,0,2,0,8,0,0,0,6,0,0,2,0,0,4,0,0,0,0,0,3,0,9,2 | 0,0,0,7,0,0,0,0,0,0,0,0,0,0,0,0,0,0,0,0,3,0,0,0,7,0,0,10,0,6,0,0,0,0,0,3,0,0,5,6,0,3,0,4,4,8,0,4,0,0 | 0,0,0,6,0,0,4,0,0,0,7,5,1,0,0,5,0,0,0,0,0,4,0,0,6,4,0,5,0,0,3,0,0,1,0,0,0,0,0,6,0,0,6,5,6,3,0,0,5,0 | 5,5,0,0,6,0,0,6,4,0,1,0,0,3,0,0,6,0,0,3,0,0,0,0,0,5,0,0,5,0,0,3,0,0,4,0,0,1,0,0,0,8,0,3,0,0,1,0,0,4 | 0,0,6,0,0,2,10,0,0,10,0,4,0,0,5,0,0,0,0,0,1,0,0,5,0,0,2,0,0,0,0,12,1,0,0,5,0,8,3,11,6,0,10,0,3,0,11,0,0,0 | 0,0,0,0,0,0,5,7,0,5,0,0,2,0,4,1,0,0,6,0,0,0,0,0,0,0,0,0,0,0,0,0,0,2,0,0,1,0,0,0,0,0,2,0,0,0,5,4,5,0 | 0,0,0,0,4,0,0,1,0,0,0,5,0,3,0,0,1,0,0,0,0,10,2,0,0,0,10,0,2,0,0,0,0,0,3,0,0,5,0,0,5,0,0,6,0,0,2,0,7,3 | 0,0,0,0,0,0,0,0,5,0,0,2,0,0,5,8,0,0,0,0,5,0,8,4,0,0,0,0,0,0,0,0,2,0,0,2,0,0,0,0,11,2,0,7,2,0,0,0,0,0 | 6,0,0,0,0,0,6,0,0,4,0,0,3,0,0,1,0,4,3,0,0,6,0,0,4,0,0,3,0,0,4,0,10,1,0,0,2,0,9,5,0,0,1,0,0,2,0,0,3,0 | 0,0,12,0,3,0,0,0,0,0,5,5,0,0,0,0,2,0,8,0,0,0,4,10,0,2,0,0,0,0,0,1,0,0,0,0,0,0,0,0,1,0,0,0,0,0,5,0,0,0 | 0,10,4,0,0,1,4,0,3,0,0,0,0,9,1,6,0,0,0,0,5,4,0,2,0,0,0,0,0,5,0,0,0,10,0,0,6,5,6,0,0,0,11,0,5,0,0,1,0,0 | 0,0,0,1,12,0,2,0,4,2,10,6,4,0,0,0,10,0,6,11,0,6,0,0,0,0,5,6,0,0,4,0,0,1,0,10,3,0,0,0,0,0,2,0,0,0,0,9,0,0 | 0,0,0,0,6,0,0,0,0,0,3,6,10,5,0,0,2,10,0,3,0,0,5,0,0,2,0,4,0,0,0,4,0,0,5,0,10,0,0,0,0,9,5,2,0,0,0,0,0,2 |];
